NAME: PointSet_Angle_35_1
TYPE: TSP
COMMENT: Points chosen discrete uniformly at random out of ${0, \ldots, 500}^2$.
DIMENSION: 35
EDGE_WEIGHT_TYPE: EUC_2D
NODE_COORD_SECTION
1 385 109
2 164 330
3 433 355
4 313 63
5 128 466
6 380 475
7 206 207
8 292 97
9 124 402
10 61 250
11 249 224
12 183 395
13 499 49
14 492 444
15 211 70
16 71 342
17 180 235
18 418 112
19 337 477
20 422 211
21 189 301
22 433 395
23 255 224
24 239 379
25 126 300
26 375 375
27 23 57
28 270 268
29 353 7
30 212 63
31 78 29
32 151 4
33 11 315
34 363 94
35 292 284
EOF
